ilp_joint/output/mimicry_ilp.lp
Maximize
  5.33066e-05 Z_502_0_0 + 0.00310189431023585 Z_502_0_1
   + 0.8752130731395987 Z_502_0_2 + 0.00139423400541831 Z_502_0_3
   + 0.0202374919624276 Z_502_0_4 + 4.4755e-05 Z_480_0_0
   + 0.00110932575594478 Z_480_0_1 + 0.8592845626701459 Z_480_0_2
   + 0.00249080160717396 Z_480_0_3 + 0.0370705549910659 Z_480_0_4
Subject To
 constraint1_5020: Z_502_0_0 + Z_502_0_1 + Z_502_0_2 + Z_502_0_3
   + Z_502_0_4 <= 1
 constraint1_4800: Z_480_0_0 + Z_480_0_1 + Z_480_0_2 + Z_480_0_3
   + Z_480_0_4 <= 1
 constraint2_5020: Z_502_0_0 <= 1
 constraint2_5021: Z_502_0_1 <= 1
 constraint2_5022: Z_502_0_2 <= 1
 constraint2_5023: Z_502_0_3 <= 1
 constraint2_4800: Z_480_0_0 <= 1
 constraint2_4801: Z_480_0_1 <= 1
 constraint2_4802: Z_480_0_2 <= 1
 constraint2_4803: Z_480_0_3 <= 1
Bounds
Binaries
 Z_502_0_0 Z_502_0_1 Z_502_0_2 Z_502_0_3 Z_502_0_4 Z_480_0_0 Z_480_0_1
 Z_480_0_2 Z_480_0_3 Z_480_0_4
End
