ilp_joint/output/mimicry_ilp.sol
# Solution for model mimicry_srl_ilp
# Objective value = 1.7175575969716212e+00
Z_653_0_0 0
Z_653_0_1 0
Z_653_0_2 1
Z_653_0_3 0
Z_653_0_4 0
Z_667_0_0 0
Z_667_0_1 0
Z_667_0_2 1
Z_667_0_3 0
Z_667_0_4 0
